NAME : Unnamed.801.tour
COMMENT : Length = 801
COMMENT : Found by LKH [Keld Helsgaun] Wed Oct 22 13:40:14 2014
TYPE : TOUR
DIMENSION : 98
TOUR_SECTION
1
2
3
26
21
29
31
17
30
16
5
8
19
22
20
10
23
15
28
18
7
81
80
82
90
84
85
9
11
83
27
25
14
66
86
97
93
92
87
36
56
41
62
45
94
89
96
88
69
95
91
59
40
48
49
42
32
53
63
58
78
46
37
61
79
52
73
51
47
60
70
44
54
57
75
76
43
50
39
33
35
71
74
65
34
72
38
68
67
55
64
77
24
6
4
12
13
98
-1
EOF
